StudentsNr = 5;
InstructorsNr = 3;
DaysNr = 1;
SlotsPerDay = 10;
AvailabilitySlotsLenght = 2;
RoomNr = 1;
ProgrammNr = 1;
DegreeNr = 1;
RolesNr = 2;
CoursesNr = 4;
InstructorsProgramm = [{1}, {1}, {1}];
InstructorRolesPerProgramm = [|{1}, {1, 2}|];
InstructorsAvailability = [|1, 1, 1, 1, 1, |1, 1, 1, 1, 1, |0, 0, 1, 1, 0|];
StudentsProgramm = [1, 1, 1, 1, 1];
StudentsDegree = [1, 1, 1, 1, 1];
StudentsSupervisorId = [1, 1, 2, 2, 2];
StudentsCourseIds = [{2, 3, 4}, {2, 3, 4}, {1, 2, 4}, {1, 2, 4}, {1, 2, 4}];
StudentsAvailability = [|0, 0, 0, 0, 1, |1, 1, 0, 0, 1, |1, 1, 1, 1, 1, |0, 1, 1, 1, 1, |0, 0, 0, 0, 0|];
TheoryticalMinCard = [0, 0, 0, 0, 0];
CoursesInstructorIds = [{1}, {1}, {1, 2}, {2}];
RolesDemands = [0, 2];
RolesContinuity = [];
ExamLen = [2, 2, 2, 2, 2];
LunchTsMinLen = 0;
LunchStarts = [5..6];
SupervisorAvailable = 5;
OptimalLunchLenght = [2, 2];
OptimalStartTs = [1, 2];
OptimalFinishTs = [1, 9];
MinimizeRooms = 500;
RolesSoftContinuity = [|1, 2|0, 2|];
SameDegreeInRoom = 0;
Mergeability = 1;
